n=10;
hearts=26;
clubs=37;
spades=38;
diamonds=15;
blocked=1;
m=array2d(1..n, 1..n,[
	4,_,4,_,_,_,2,_,_,_,
	_,_,_,_,_,_,2,_,_,_,
	_,_,_,_,_,3,_,_,_,_,
	_,_,_,_,_,_,_,_,_,2,
	_,_,_,_,_,_,_,_,_,_,
	_,_,_,_,_,_,5,_,_,_,
	1,_,4,_,_,_,_,_,_,_,
	_,4,_,_,4,_,_,4,_,_,
	_,2,_,_,_,_,_,_,_,_,
	_,_,_,_,_,_,4,_,_,_
]);
